51 6
11 13 10 12 12 11
1 0 0 0 0 0 0 3 2 3 4
5 6 0 0 5 0 10 1 5
2 8 0 0 0 0 5 1 8
7 0 9 8 0 0 6 3 6 7 8
2 0 5 2 10 6 0 2 11 12
10 3 8 0 9 0 4 3 10 11 12
4 1 0 3 0 0 6 1 9
3 0 5 0 0 0 0 1 10
8 0 2 4 0 5 10 2 14 16
6 3 0 4 0 8 0 2 13 16
8 0 0 0 1 0 0 4 13 14 15 16
4 0 4 0 10 0 0 3 13 15 16
5 0 0 0 4 3 0 3 17 19 20
8 0 2 0 5 0 6 4 17 18 19 20
2 0 0 2 5 0 0 3 18 19 20
9 0 0 0 2 3 6 3 17 19 20
10 0 5 0 8 2 3 2 21 22
4 4 7 0 0 10 0 2 21 23
2 7 2 7 5 0 0 2 23 24
10 5 8 9 0 5 0 2 22 24
3 10 0 7 8 2 0 3 25 26 28
9 3 4 3 3 9 5 3 25 26 28
9 10 0 5 0 0 0 1 28
9 5 6 0 0 8 1 3 25 27 28
7 0 0 0 3 1 7 1 29
6 0 0 0 0 4 1 2 30 32
6 0 4 1 4 0 0 4 29 30 31 32
3 3 7 5 4 3 0 3 29 30 31
1 3 9 5 0 0 0 2 35 36
6 7 0 0 8 2 9 3 34 35 36
3 1 10 9 2 0 2 1 34
6 3 0 1 0 0 9 1 33
10 4 0 0 2 0 8 1 39
9 0 5 1 0 7 6 1 38
8 2 0 3 0 6 10 2 39 40
4 0 0 0 3 5 0 1 37
9 3 0 0 5 0 9 2 41 42
5 0 2 10 3 0 0 3 41 42 43
5 0 10 1 0 7 0 3 42 43 44
1 0 9 7 3 4 0 4 41 42 43 44
2 0 5 0 0 10 0 2 46 48
3 0 0 2 1 0 0 3 46 47 48
3 10 5 0 0 0 1 2 46 48
10 10 6 0 0 0 1 1 45
6 0 5 4 8 0 0 1 49
3 4 0 3 9 10 0 1 50
8 0 2 0 9 6 0 2 49 50
2 6 9 0 6 5 0 1 50
3 0 4 3 0 0 3 1 51
4 10 0 0 0 8 0 1 51
0 0 0 0 0 0 0 0
